p cnf 50 20
x -7 12 13 -16 17 19 -20 26 -29 -30 31 -34 -37 -40 -41 43 -44 45 46 -47 -48 50 0
x -1 3 -4 -5 -6 -7 15 -16 -18 -19 -22 27 -28 29 -32 -34 -36 39 -40 -42 -45 -46 49 50 0
x -4 5 -6 -8 9 -10 12 -15 -16 17 -23 -24 25 26 33 -34 -35 36 -37 -39 -41 -42 43 -45 -50 0
x 2 -4 -6 -11 12 14 19 20 -21 -25 27 29 30 -32 38 -39 40 -41 42 -43 44 -45 48 0
x -2 -3 4 6 8 9 10 -11 -12 -13 15 18 -19 -20 -23 -24 25 -29 31 34 36 39 -40 -41 -42 -43 -44 45 -48 -50 0
x 1 -2 -4 6 -7 8 -9 10 -11 -12 13 14 -17 18 20 24 -25 26 28 -29 32 33 39 -43 45 -47 48 0
x -1 2 -3 8 11 -15 -17 21 23 -26 -28 -32 -34 -35 39 40 46 50 0
x -1 -2 6 7 8 -11 12 17 -18 19 -20 24 -25 -28 30 -36 -38 -39 40 -41 42 -43 44 45 46 47 48 0
x 2 -3 7 -8 -9 -11 13 -16 21 23 25 -27 -29 30 -31 -32 -33 -35 -36 -38 39 40 42 44 -45 -49 -50 0
x 2 -4 -5 -6 -7 8 -9 12 -13 -15 -16 -18 -19 -20 22 24 28 -29 -32 34 35 -37 38 43 45 -47 -49 -50 0
x 3 -4 5 6 8 -10 -12 -18 19 -20 21 -22 -23 26 27 -30 31 32 33 34 -36 37 38 -40 41 -43 -44 -45 46 -50 0
x 1 3 -5 7 8 -10 15 16 -20 -21 22 -23 -26 -28 29 -30 31 38 -42 -43 46 47 -48 -49 50 0
x -1 3 -4 -8 11 -13 14 -16 17 18 21 -22 -23 25 -26 -28 -29 32 35 -38 -39 -40 -42 43 -46 47 48 49 0
x -1 2 -3 -4 -5 -6 -7 9 -10 -14 -16 -24 -25 -27 -28 -29 -31 32 -34 36 37 39 42 44 45 -46 49 0
x -1 2 -3 -10 -12 -20 23 24 -25 -28 -29 -32 33 34 -35 37 -38 -39 -41 42 -44 -45 -46 -47 -49 0
x 1 5 8 -9 -10 12 -14 16 18 21 24 -25 -26 28 29 34 41 42 -43 44 45 48 0
x 2 -4 5 8 9 10 11 -12 -14 -15 20 21 -24 -25 -27 -29 32 34 35 -38 -39 42 43 -44 45 -46 -47 48 49 0
x 1 4 -7 8 -9 -10 -12 -13 14 -15 -16 17 -20 -23 -29 -31 -32 -37 38 -41 -42 47 -49 0
x -1 -2 4 -5 7 8 -9 -12 -13 -15 -16 18 -20 -21 22 -23 -24 25 26 -27 28 -29 30 -31 36 -37 -38 39 -42 -43 -44 45 46 47 48 49 0
x -1 2 5 7 9 11 12 14 16 -20 -21 22 -24 -26 28 -29 -32 -34 35 -36 -37 38 40 -41 43 -46 -47 -50 0
g -10